0
66
55
45
60
32
95
107
133
62
112
39
70
125
57
68
53
140
207
40
95
68
39
60
58
120
39
62
68
51
0
159
75
36
85
37
0
34
0
80
208
88
80
48
69
53
52
68
46
72
42
54
57
0
61
38
51
75
0
34
53
56
38
97
117
72
42
73
42
158
67
44
35
61
74
0
92
0
130
57
84
0
55
60
0
55
47
62
70
51
62
119
55
82
53
39
97
58
51
224
